StudentsNr = 10;
InstructorsNr = 73;
DaysNr = 2;
SlotsPerDay = 40;
AvailabilitySlotsLenght = 40;
RoomNr = 1;
ProgrammNr = 1;
DegreeNr = 2;
RolesNr = 4;
CoursesNr = 10;
InstructorsProgramm = [{1}, {1}, {1}, {1}, {1}, {1}, {1}, {1}, {1}, {1}, {1}, {1}, {1}, {1}, {1}, {1}, {1}, {1}, {1}, {1}, {1}, {1}, {1}, {1}, {1}, {1}, {1}, {1}, {1}, {1}, {1}, {1}, {1}, {1}, {1}, {1}, {1}, {1}, {1}, {1}, {1}, {1}, {1}, {1}, {1}, {1}, {1}, {1}, {1}, {1}, {1}, {1}, {1}, {1}, {1}, {1}, {1}, {1}, {1}, {1}, {1}, {1}, {1}, {1}, {1}, {1}, {1}, {1}, {1}, {1}, {1}, {1}, {1}];
InstructorRolesPerProgramm = [|{2, 4, 5, 6, 8, 14, 16, 17, 18, 19, 22, 23, 26, 29, 30, 33, 35, 36, 37, 39, 44, 51, 55, 57, 58, 62, 67, 68, 71, 72}, {2, 3, 5, 7, 9, 10, 11, 13, 14, 15, 17, 19, 21, 22, 24, 27, 29, 35, 36, 37, 38, 43, 44, 49, 50, 52, 55, 58, 59, 65, 70}, {1, 2, 4, 7, 10, 13, 16, 17, 18, 19, 21, 22, 24, 26, 28, 29, 31, 34, 37, 38, 39, 43, 52, 55, 57, 60, 61, 65, 68, 69, 70}, {1, 2, 8, 10, 14, 16, 18, 21, 23, 24, 25, 26, 28, 30, 36, 39, 43, 47, 48, 50, 52, 54, 57, 60, 62, 69, 70}|];
InstructorsAvailability = [|0, 1, |1, 1, |1, 1, |0, 1, |0, 1, |0, 0, |0, 1, |0, 1, |0, 1, |0, 1, |0, 0, |0, 1, |1, 1, |1, 1, |0, 0, |0, 0, |0, 0, |0, 1, |1, 1, |0, 1, |1, 1, |0, 1, |1, 1, |0, 1, |0, 1, |1, 1, |1, 1, |1, 1, |1, 1, |1, 1, |0, 1, |0, 1, |1, 1, |1, 1, |0, 1, |1, 1, |1, 1, |1, 1, |0, 1, |1, 0, |0, 1, |1, 1, |0, 0, |1, 0, |1, 1, |1, 1, |0, 1, |0, 0, |1, 1, |0, 1, |1, 1, |1, 1, |0, 1, |1, 1, |1, 1, |1, 1, |1, 1, |0, 0, |1, 1, |0, 1, |1, 0, |0, 1, |0, 1, |1, 1, |0, 0, |0, 1, |1, 0, |1, 1, |0, 1, |1, 1, |1, 1, |1, 1, |0, 1|];
StudentsProgramm = [1, 1, 1, 1, 1, 1, 1, 1, 1, 1];
StudentsDegree = [2, 2, 2, 2, 2, 2, 2, 2, 2, 2];
StudentsSupervisorId = [54, 11, 71, 33, 19, 41, 59, 11, 16, 40];
StudentsCourseIds = [{4, 8}, {1, 6}, {4, 9}, {1, 7}, {7, 9}, {7, 8}, {3, 6}, {4, 5}, {2, 5}, {1, 4}];
StudentsAvailability = [|1, 1, |1, 1, |0, 1, |0, 1, |0, 0, |0, 0, |0, 1, |1, 1, |1, 1, |0, 0|];
TheoryticalMinCard = [0, 0, 0, 0, 0, 1, 0, 0, 0, 1];
CoursesInstructorIds = [{3, 4, 5, 6, 8, 9, 16, 19, 21, 22, 23, 24, 27, 29, 31, 32, 33, 36, 37, 39, 42, 43, 45, 50, 52, 53, 54, 55, 57, 58, 60, 62, 64, 65, 67, 69, 72, 73}, {1, 2, 4, 6, 7, 8, 9, 12, 13, 14, 15, 16, 17, 20, 21, 24, 27, 28, 30, 31, 32, 33, 34, 38, 40, 41, 46, 47, 48, 50, 51, 52, 55, 56, 57, 59, 62, 63, 64, 65, 67, 68, 70, 73}, {1, 2, 8, 9, 11, 12, 13, 16, 18, 19, 20, 22, 24, 25, 26, 27, 28, 31, 33, 34, 38, 40, 41, 44, 46, 47, 48, 49, 50, 53, 56, 57, 59, 60, 61, 62, 63, 64, 65, 66, 68, 69, 71, 73}, {7, 11, 12, 13, 20, 35, 38, 39, 49, 51, 53, 63, 65, 67, 70}, {3, 7, 9, 10, 12, 13, 16, 24, 32, 35, 36, 45, 46, 47, 48, 55, 56, 57, 61, 62, 63, 64, 66, 67, 68, 70, 72, 73}, {1, 2, 3, 4, 5, 7, 8, 9, 14, 16, 19, 21, 22, 24, 25, 27, 30, 31, 32, 33, 34, 35, 36, 37, 38, 41, 42, 45, 47, 48, 50, 51, 52, 56, 57, 58, 60, 61, 64, 65, 69, 70, 71, 73}, {4, 11, 38, 61}, {2, 3, 4, 9, 10, 13, 14, 15, 16, 17, 18, 19, 20, 21, 24, 25, 26, 28, 31, 32, 35, 37, 40, 43, 46, 49, 50, 53, 54, 58, 59, 60, 63, 64, 65, 66, 68, 70, 73}, {3, 5, 6, 7, 8, 9, 12, 15, 16, 20, 23, 24, 25, 28, 30, 32, 36, 38, 39, 40, 44, 45, 46, 47, 48, 52, 53, 54, 58, 60, 61, 64, 67, 68, 72}, {12, 14, 15, 19, 38, 40, 41, 48, 49, 52, 62}];
RolesDemands = [2, 19, 8, 25];
RolesContinuity = [];
ExamLen = [2, 2, 2, 2, 2, 2, 2, 2, 2, 2];
LunchTsMinLen = 1;
LunchStarts = [10..25, 56..68];
SupervisorAvailable = 0;
OptimalLunchLenght = [3, 3];
OptimalStartTs = [1, 1];
OptimalFinishTs = [1, 39];
MinimizeRooms = 100;
RolesSoftContinuity = [|1, 2, 3, 4|4, 1, 2, 2|];
SameDegreeInRoom = 0;
Mergeability = 0;
